Route #1: 1 34 40 46 43 66 41 24 32 37 35 1 
Route #2: 1 1 49 7 18 16 14 4 39 64 6 1 
Route #3: 1 11 50 63 55 2 10 38 65 1 
Route #4: 1 36 42 44 53 22 27 29 20 1 
Route #5: 1 8 51 17 33 25 1 
Route #6: 1 23 59 26 47 31 9 1 
Route #7: 1 19 45 54 15 58 5 1 
Route #8: 1 60 3 57 30 61 62 1 
Route #9: 1 12 13 28 56 21 1 
Route #10: 1 48 52 1 

Cost 1891.41
Time 0.6795


 * Another infos *

 Iterations: 67 Time: 0.6795 sec - 0.0113 min - 0.0002 horas
0.0000 h 0.0113 min
Problem dimension: 67
